c Geometric graph with bandwidth and node weights
c Parameters: Vertices 50, Max node weight 3, Max edge weight 10
c      Maximum squared distance for edge (in 10,000 by 10,000 square) 10000000
c not original file ! Modified for weighted vertex coloring problem
p edge 50 249
e 1 10
e 1 12
e 1 13
e 1 15
e 1 25
e 1 28
e 1 33
e 1 37
e 1 40
e 1 46
e 2 11
e 2 12
e 2 16
e 2 17
e 2 18
e 2 20
e 2 21
e 2 22
e 2 25
e 2 26
e 2 32
e 2 34
e 2 36
e 2 43
e 2 45
e 2 49
e 2 50
e 3 6
e 3 14
e 3 17
e 3 18
e 3 26
e 3 29
e 3 31
e 3 38
e 3 44
e 3 47
e 4 14
e 4 24
e 4 27
e 4 29
e 4 30
e 4 41
e 5 16
e 5 19
e 5 32
e 5 35
e 5 42
e 5 45
e 6 8
e 6 9
e 6 18
e 6 34
e 6 38
e 6 39
e 6 43
e 6 44
e 6 48
e 7 14
e 7 29
e 7 47
e 8 9
e 8 11
e 8 18
e 8 20
e 8 34
e 8 38
e 8 39
e 8 43
e 8 48
e 9 38
e 9 39
e 9 48
e 10 25
e 10 28
e 10 37
e 10 40
e 10 45
e 11 20
e 11 21
e 11 22
e 11 32
e 11 34
e 11 39
e 11 42
e 11 43
e 12 16
e 12 17
e 12 22
e 12 25
e 12 26
e 12 36
e 12 37
e 12 40
e 12 46
e 12 49
e 12 50
e 13 15
e 13 23
e 13 24
e 13 27
e 13 28
e 13 30
e 13 33
e 13 37
e 13 40
e 13 46
e 14 17
e 14 26
e 14 27
e 14 29
e 14 30
e 14 31
e 14 41
e 15 23
e 15 24
e 15 28
e 15 33
e 15 37
e 15 40
e 15 46
e 16 19
e 16 21
e 16 22
e 16 25
e 16 32
e 16 35
e 16 36
e 16 42
e 16 45
e 17 18
e 17 26
e 17 31
e 17 34
e 17 36
e 17 38
e 17 41
e 17 43
e 17 49
e 17 50
e 18 26
e 18 31
e 18 34
e 18 38
e 18 43
e 18 44
e 18 49
e 18 50
e 19 21
e 19 22
e 19 25
e 19 32
e 19 35
e 19 42
e 19 45
e 20 21
e 20 22
e 20 32
e 20 39
e 20 42
e 21 22
e 21 32
e 21 36
e 21 42
e 21 45
e 21 50
e 22 25
e 22 32
e 22 36
e 22 42
e 22 45
e 22 49
e 22 50
e 23 28
e 23 33
e 24 27
e 24 30
e 24 33
e 24 41
e 24 46
e 25 32
e 25 36
e 25 37
e 25 45
e 26 31
e 26 34
e 26 36
e 26 38
e 26 41
e 26 43
e 26 49
e 26 50
e 27 29
e 27 30
e 27 31
e 27 41
e 27 46
e 28 33
e 28 37
e 28 40
e 28 46
e 29 31
e 29 41
e 30 31
e 30 33
e 30 41
e 30 46
e 31 41
e 31 49
e 31 50
e 32 35
e 32 36
e 32 42
e 32 45
e 33 37
e 33 40
e 33 46
e 34 38
e 34 39
e 34 43
e 34 44
e 34 50
e 35 42
e 35 45
e 36 37
e 36 45
e 36 49
e 36 50
e 37 40
e 37 46
e 37 49
e 37 50
e 38 39
e 38 43
e 38 44
e 38 48
e 38 50
e 39 43
e 40 46
e 40 49
e 41 46
e 41 49
e 43 44
e 43 50
e 44 47
e 44 48
e 46 49
e 46 50
e 49 50
